c description: Graph pigeonhole principle formula on fast_gnp_random_graph(20,10,0.9)
c generator: CNFgen (0.9.0)
c copyright: (C) 2012-2020 Massimo Lauria <massimo.lauria@uniroma1.it>
c url: https://massimolauria.net/cnfgen
c
p cnf 182 1590
1 2 3 4 5 6 7 8 9 0
10 11 12 13 14 15 16 17 18 0
19 20 21 22 23 24 25 26 27 0
28 29 30 31 32 33 34 35 36 37 0
38 39 40 41 42 43 44 45 46 47 0
48 49 50 51 52 53 54 0
55 56 57 58 59 60 61 62 63 0
64 65 66 67 68 69 70 71 72 0
73 74 75 76 77 78 79 80 81 0
82 83 84 85 86 87 88 89 90 0
91 92 93 94 95 96 97 98 99 0
100 101 102 103 104 105 106 107 108 0
109 110 111 112 113 114 115 116 117 0
118 119 120 121 122 123 124 125 126 127 0
128 129 130 131 132 133 134 135 136 0
137 138 139 140 141 142 143 144 145 146 0
147 148 149 150 151 152 153 154 0
155 156 157 158 159 160 161 162 163 164 0
165 166 167 168 169 170 171 172 173 0
174 175 176 177 178 179 180 181 182 0
-1 -10 0
-1 -19 0
-1 -28 0
-1 -38 0
-1 -48 0
-1 -55 0
-1 -64 0
-1 -73 0
-1 -82 0
-1 -91 0
-1 -100 0
-1 -109 0
-1 -118 0
-1 -137 0
-1 -147 0
-1 -155 0
-1 -165 0
-1 -174 0
-10 -19 0
-10 -28 0
-10 -38 0
-10 -48 0
-10 -55 0
-10 -64 0
-10 -73 0
-10 -82 0
-10 -91 0
-10 -100 0
-10 -109 0
-10 -118 0
-10 -137 0
-10 -147 0
-10 -155 0
-10 -165 0
-10 -174 0
-19 -28 0
-19 -38 0
-19 -48 0
-19 -55 0
-19 -64 0
-19 -73 0
-19 -82 0
-19 -91 0
-19 -100 0
-19 -109 0
-19 -118 0
-19 -137 0
-19 -147 0
-19 -155 0
-19 -165 0
-19 -174 0
-28 -38 0
-28 -48 0
-28 -55 0
-28 -64 0
-28 -73 0
-28 -82 0
-28 -91 0
-28 -100 0
-28 -109 0
-28 -118 0
-28 -137 0
-28 -147 0
-28 -155 0
-28 -165 0
-28 -174 0
-38 -48 0
-38 -55 0
-38 -64 0
-38 -73 0
-38 -82 0
-38 -91 0
-38 -100 0
-38 -109 0
-38 -118 0
-38 -137 0
-38 -147 0
-38 -155 0
-38 -165 0
-38 -174 0
-48 -55 0
-48 -64 0
-48 -73 0
-48 -82 0
-48 -91 0
-48 -100 0
-48 -109 0
-48 -118 0
-48 -137 0
-48 -147 0
-48 -155 0
-48 -165 0
-48 -174 0
-55 -64 0
-55 -73 0
-55 -82 0
-55 -91 0
-55 -100 0
-55 -109 0
-55 -118 0
-55 -137 0
-55 -147 0
-55 -155 0
-55 -165 0
-55 -174 0
-64 -73 0
-64 -82 0
-64 -91 0
-64 -100 0
-64 -109 0
-64 -118 0
-64 -137 0
-64 -147 0
-64 -155 0
-64 -165 0
-64 -174 0
-73 -82 0
-73 -91 0
-73 -100 0
-73 -109 0
-73 -118 0
-73 -137 0
-73 -147 0
-73 -155 0
-73 -165 0
-73 -174 0
-82 -91 0
-82 -100 0
-82 -109 0
-82 -118 0
-82 -137 0
-82 -147 0
-82 -155 0
-82 -165 0
-82 -174 0
-91 -100 0
-91 -109 0
-91 -118 0
-91 -137 0
-91 -147 0
-91 -155 0
-91 -165 0
-91 -174 0
-100 -109 0
-100 -118 0
-100 -137 0
-100 -147 0
-100 -155 0
-100 -165 0
-100 -174 0
-109 -118 0
-109 -137 0
-109 -147 0
-109 -155 0
-109 -165 0
-109 -174 0
-118 -137 0
-118 -147 0
-118 -155 0
-118 -165 0
-118 -174 0
-137 -147 0
-137 -155 0
-137 -165 0
-137 -174 0
-147 -155 0
-147 -165 0
-147 -174 0
-155 -165 0
-155 -174 0
-165 -174 0
-2 -11 0
-2 -20 0
-2 -29 0
-2 -39 0
-2 -49 0
-2 -65 0
-2 -74 0
-2 -83 0
-2 -92 0
-2 -101 0
-2 -110 0
-2 -119 0
-2 -128 0
-2 -138 0
-2 -148 0
-2 -156 0
-2 -166 0
-2 -175 0
-11 -20 0
-11 -29 0
-11 -39 0
-11 -49 0
-11 -65 0
-11 -74 0
-11 -83 0
-11 -92 0
-11 -101 0
-11 -110 0
-11 -119 0
-11 -128 0
-11 -138 0
-11 -148 0
-11 -156 0
-11 -166 0
-11 -175 0
-20 -29 0
-20 -39 0
-20 -49 0
-20 -65 0
-20 -74 0
-20 -83 0
-20 -92 0
-20 -101 0
-20 -110 0
-20 -119 0
-20 -128 0
-20 -138 0
-20 -148 0
-20 -156 0
-20 -166 0
-20 -175 0
-29 -39 0
-29 -49 0
-29 -65 0
-29 -74 0
-29 -83 0
-29 -92 0
-29 -101 0
-29 -110 0
-29 -119 0
-29 -128 0
-29 -138 0
-29 -148 0
-29 -156 0
-29 -166 0
-29 -175 0
-39 -49 0
-39 -65 0
-39 -74 0
-39 -83 0
-39 -92 0
-39 -101 0
-39 -110 0
-39 -119 0
-39 -128 0
-39 -138 0
-39 -148 0
-39 -156 0
-39 -166 0
-39 -175 0
-49 -65 0
-49 -74 0
-49 -83 0
-49 -92 0
-49 -101 0
-49 -110 0
-49 -119 0
-49 -128 0
-49 -138 0
-49 -148 0
-49 -156 0
-49 -166 0
-49 -175 0
-65 -74 0
-65 -83 0
-65 -92 0
-65 -101 0
-65 -110 0
-65 -119 0
-65 -128 0
-65 -138 0
-65 -148 0
-65 -156 0
-65 -166 0
-65 -175 0
-74 -83 0
-74 -92 0
-74 -101 0
-74 -110 0
-74 -119 0
-74 -128 0
-74 -138 0
-74 -148 0
-74 -156 0
-74 -166 0
-74 -175 0
-83 -92 0
-83 -101 0
-83 -110 0
-83 -119 0
-83 -128 0
-83 -138 0
-83 -148 0
-83 -156 0
-83 -166 0
-83 -175 0
-92 -101 0
-92 -110 0
-92 -119 0
-92 -128 0
-92 -138 0
-92 -148 0
-92 -156 0
-92 -166 0
-92 -175 0
-101 -110 0
-101 -119 0
-101 -128 0
-101 -138 0
-101 -148 0
-101 -156 0
-101 -166 0
-101 -175 0
-110 -119 0
-110 -128 0
-110 -138 0
-110 -148 0
-110 -156 0
-110 -166 0
-110 -175 0
-119 -128 0
-119 -138 0
-119 -148 0
-119 -156 0
-119 -166 0
-119 -175 0
-128 -138 0
-128 -148 0
-128 -156 0
-128 -166 0
-128 -175 0
-138 -148 0
-138 -156 0
-138 -166 0
-138 -175 0
-148 -156 0
-148 -166 0
-148 -175 0
-156 -166 0
-156 -175 0
-166 -175 0
-3 -12 0
-3 -30 0
-3 -40 0
-3 -50 0
-3 -56 0
-3 -66 0
-3 -75 0
-3 -84 0
-3 -93 0
-3 -102 0
-3 -111 0
-3 -120 0
-3 -129 0
-3 -139 0
-3 -149 0
-3 -157 0
-3 -176 0
-12 -30 0
-12 -40 0
-12 -50 0
-12 -56 0
-12 -66 0
-12 -75 0
-12 -84 0
-12 -93 0
-12 -102 0
-12 -111 0
-12 -120 0
-12 -129 0
-12 -139 0
-12 -149 0
-12 -157 0
-12 -176 0
-30 -40 0
-30 -50 0
-30 -56 0
-30 -66 0
-30 -75 0
-30 -84 0
-30 -93 0
-30 -102 0
-30 -111 0
-30 -120 0
-30 -129 0
-30 -139 0
-30 -149 0
-30 -157 0
-30 -176 0
-40 -50 0
-40 -56 0
-40 -66 0
-40 -75 0
-40 -84 0
-40 -93 0
-40 -102 0
-40 -111 0
-40 -120 0
-40 -129 0
-40 -139 0
-40 -149 0
-40 -157 0
-40 -176 0
-50 -56 0
-50 -66 0
-50 -75 0
-50 -84 0
-50 -93 0
-50 -102 0
-50 -111 0
-50 -120 0
-50 -129 0
-50 -139 0
-50 -149 0
-50 -157 0
-50 -176 0
-56 -66 0
-56 -75 0
-56 -84 0
-56 -93 0
-56 -102 0
-56 -111 0
-56 -120 0
-56 -129 0
-56 -139 0
-56 -149 0
-56 -157 0
-56 -176 0
-66 -75 0
-66 -84 0
-66 -93 0
-66 -102 0
-66 -111 0
-66 -120 0
-66 -129 0
-66 -139 0
-66 -149 0
-66 -157 0
-66 -176 0
-75 -84 0
-75 -93 0
-75 -102 0
-75 -111 0
-75 -120 0
-75 -129 0
-75 -139 0
-75 -149 0
-75 -157 0
-75 -176 0
-84 -93 0
-84 -102 0
-84 -111 0
-84 -120 0
-84 -129 0
-84 -139 0
-84 -149 0
-84 -157 0
-84 -176 0
-93 -102 0
-93 -111 0
-93 -120 0
-93 -129 0
-93 -139 0
-93 -149 0
-93 -157 0
-93 -176 0
-102 -111 0
-102 -120 0
-102 -129 0
-102 -139 0
-102 -149 0
-102 -157 0
-102 -176 0
-111 -120 0
-111 -129 0
-111 -139 0
-111 -149 0
-111 -157 0
-111 -176 0
-120 -129 0
-120 -139 0
-120 -149 0
-120 -157 0
-120 -176 0
-129 -139 0
-129 -149 0
-129 -157 0
-129 -176 0
-139 -149 0
-139 -157 0
-139 -176 0
-149 -157 0
-149 -176 0
-157 -176 0
-4 -21 0
-4 -31 0
-4 -41 0
-4 -51 0
-4 -57 0
-4 -67 0
-4 -76 0
-4 -85 0
-4 -94 0
-4 -103 0
-4 -121 0
-4 -130 0
-4 -140 0
-4 -150 0
-4 -158 0
-4 -167 0
-21 -31 0
-21 -41 0
-21 -51 0
-21 -57 0
-21 -67 0
-21 -76 0
-21 -85 0
-21 -94 0
-21 -103 0
-21 -121 0
-21 -130 0
-21 -140 0
-21 -150 0
-21 -158 0
-21 -167 0
-31 -41 0
-31 -51 0
-31 -57 0
-31 -67 0
-31 -76 0
-31 -85 0
-31 -94 0
-31 -103 0
-31 -121 0
-31 -130 0
-31 -140 0
-31 -150 0
-31 -158 0
-31 -167 0
-41 -51 0
-41 -57 0
-41 -67 0
-41 -76 0
-41 -85 0
-41 -94 0
-41 -103 0
-41 -121 0
-41 -130 0
-41 -140 0
-41 -150 0
-41 -158 0
-41 -167 0
-51 -57 0
-51 -67 0
-51 -76 0
-51 -85 0
-51 -94 0
-51 -103 0
-51 -121 0
-51 -130 0
-51 -140 0
-51 -150 0
-51 -158 0
-51 -167 0
-57 -67 0
-57 -76 0
-57 -85 0
-57 -94 0
-57 -103 0
-57 -121 0
-57 -130 0
-57 -140 0
-57 -150 0
-57 -158 0
-57 -167 0
-67 -76 0
-67 -85 0
-67 -94 0
-67 -103 0
-67 -121 0
-67 -130 0
-67 -140 0
-67 -150 0
-67 -158 0
-67 -167 0
-76 -85 0
-76 -94 0
-76 -103 0
-76 -121 0
-76 -130 0
-76 -140 0
-76 -150 0
-76 -158 0
-76 -167 0
-85 -94 0
-85 -103 0
-85 -121 0
-85 -130 0
-85 -140 0
-85 -150 0
-85 -158 0
-85 -167 0
-94 -103 0
-94 -121 0
-94 -130 0
-94 -140 0
-94 -150 0
-94 -158 0
-94 -167 0
-103 -121 0
-103 -130 0
-103 -140 0
-103 -150 0
-103 -158 0
-103 -167 0
-121 -130 0
-121 -140 0
-121 -150 0
-121 -158 0
-121 -167 0
-130 -140 0
-130 -150 0
-130 -158 0
-130 -167 0
-140 -150 0
-140 -158 0
-140 -167 0
-150 -158 0
-150 -167 0
-158 -167 0
-5 -13 0
-5 -22 0
-5 -32 0
-5 -42 0
-5 -58 0
-5 -68 0
-5 -95 0
-5 -112 0
-5 -122 0
-5 -131 0
-5 -141 0
-5 -151 0
-5 -159 0
-5 -168 0
-5 -177 0
-13 -22 0
-13 -32 0
-13 -42 0
-13 -58 0
-13 -68 0
-13 -95 0
-13 -112 0
-13 -122 0
-13 -131 0
-13 -141 0
-13 -151 0
-13 -159 0
-13 -168 0
-13 -177 0
-22 -32 0
-22 -42 0
-22 -58 0
-22 -68 0
-22 -95 0
-22 -112 0
-22 -122 0
-22 -131 0
-22 -141 0
-22 -151 0
-22 -159 0
-22 -168 0
-22 -177 0
-32 -42 0
-32 -58 0
-32 -68 0
-32 -95 0
-32 -112 0
-32 -122 0
-32 -131 0
-32 -141 0
-32 -151 0
-32 -159 0
-32 -168 0
-32 -177 0
-42 -58 0
-42 -68 0
-42 -95 0
-42 -112 0
-42 -122 0
-42 -131 0
-42 -141 0
-42 -151 0
-42 -159 0
-42 -168 0
-42 -177 0
-58 -68 0
-58 -95 0
-58 -112 0
-58 -122 0
-58 -131 0
-58 -141 0
-58 -151 0
-58 -159 0
-58 -168 0
-58 -177 0
-68 -95 0
-68 -112 0
-68 -122 0
-68 -131 0
-68 -141 0
-68 -151 0
-68 -159 0
-68 -168 0
-68 -177 0
-95 -112 0
-95 -122 0
-95 -131 0
-95 -141 0
-95 -151 0
-95 -159 0
-95 -168 0
-95 -177 0
-112 -122 0
-112 -131 0
-112 -141 0
-112 -151 0
-112 -159 0
-112 -168 0
-112 -177 0
-122 -131 0
-122 -141 0
-122 -151 0
-122 -159 0
-122 -168 0
-122 -177 0
-131 -141 0
-131 -151 0
-131 -159 0
-131 -168 0
-131 -177 0
-141 -151 0
-141 -159 0
-141 -168 0
-141 -177 0
-151 -159 0
-151 -168 0
-151 -177 0
-159 -168 0
-159 -177 0
-168 -177 0
-14 -23 0
-14 -33 0
-14 -43 0
-14 -52 0
-14 -59 0
-14 -69 0
-14 -77 0
-14 -86 0
-14 -96 0
-14 -104 0
-14 -113 0
-14 -123 0
-14 -132 0
-14 -142 0
-14 -152 0
-14 -160 0
-14 -169 0
-14 -178 0
-23 -33 0
-23 -43 0
-23 -52 0
-23 -59 0
-23 -69 0
-23 -77 0
-23 -86 0
-23 -96 0
-23 -104 0
-23 -113 0
-23 -123 0
-23 -132 0
-23 -142 0
-23 -152 0
-23 -160 0
-23 -169 0
-23 -178 0
-33 -43 0
-33 -52 0
-33 -59 0
-33 -69 0
-33 -77 0
-33 -86 0
-33 -96 0
-33 -104 0
-33 -113 0
-33 -123 0
-33 -132 0
-33 -142 0
-33 -152 0
-33 -160 0
-33 -169 0
-33 -178 0
-43 -52 0
-43 -59 0
-43 -69 0
-43 -77 0
-43 -86 0
-43 -96 0
-43 -104 0
-43 -113 0
-43 -123 0
-43 -132 0
-43 -142 0
-43 -152 0
-43 -160 0
-43 -169 0
-43 -178 0
-52 -59 0
-52 -69 0
-52 -77 0
-52 -86 0
-52 -96 0
-52 -104 0
-52 -113 0
-52 -123 0
-52 -132 0
-52 -142 0
-52 -152 0
-52 -160 0
-52 -169 0
-52 -178 0
-59 -69 0
-59 -77 0
-59 -86 0
-59 -96 0
-59 -104 0
-59 -113 0
-59 -123 0
-59 -132 0
-59 -142 0
-59 -152 0
-59 -160 0
-59 -169 0
-59 -178 0
-69 -77 0
-69 -86 0
-69 -96 0
-69 -104 0
-69 -113 0
-69 -123 0
-69 -132 0
-69 -142 0
-69 -152 0
-69 -160 0
-69 -169 0
-69 -178 0
-77 -86 0
-77 -96 0
-77 -104 0
-77 -113 0
-77 -123 0
-77 -132 0
-77 -142 0
-77 -152 0
-77 -160 0
-77 -169 0
-77 -178 0
-86 -96 0
-86 -104 0
-86 -113 0
-86 -123 0
-86 -132 0
-86 -142 0
-86 -152 0
-86 -160 0
-86 -169 0
-86 -178 0
-96 -104 0
-96 -113 0
-96 -123 0
-96 -132 0
-96 -142 0
-96 -152 0
-96 -160 0
-96 -169 0
-96 -178 0
-104 -113 0
-104 -123 0
-104 -132 0
-104 -142 0
-104 -152 0
-104 -160 0
-104 -169 0
-104 -178 0
-113 -123 0
-113 -132 0
-113 -142 0
-113 -152 0
-113 -160 0
-113 -169 0
-113 -178 0
-123 -132 0
-123 -142 0
-123 -152 0
-123 -160 0
-123 -169 0
-123 -178 0
-132 -142 0
-132 -152 0
-132 -160 0
-132 -169 0
-132 -178 0
-142 -152 0
-142 -160 0
-142 -169 0
-142 -178 0
-152 -160 0
-152 -169 0
-152 -178 0
-160 -169 0
-160 -178 0
-169 -178 0
-6 -15 0
-6 -24 0
-6 -34 0
-6 -44 0
-6 -53 0
-6 -60 0
-6 -70 0
-6 -78 0
-6 -87 0
-6 -97 0
-6 -105 0
-6 -114 0
-6 -124 0
-6 -133 0
-6 -143 0
-6 -161 0
-6 -170 0
-6 -179 0
-15 -24 0
-15 -34 0
-15 -44 0
-15 -53 0
-15 -60 0
-15 -70 0
-15 -78 0
-15 -87 0
-15 -97 0
-15 -105 0
-15 -114 0
-15 -124 0
-15 -133 0
-15 -143 0
-15 -161 0
-15 -170 0
-15 -179 0
-24 -34 0
-24 -44 0
-24 -53 0
-24 -60 0
-24 -70 0
-24 -78 0
-24 -87 0
-24 -97 0
-24 -105 0
-24 -114 0
-24 -124 0
-24 -133 0
-24 -143 0
-24 -161 0
-24 -170 0
-24 -179 0
-34 -44 0
-34 -53 0
-34 -60 0
-34 -70 0
-34 -78 0
-34 -87 0
-34 -97 0
-34 -105 0
-34 -114 0
-34 -124 0
-34 -133 0
-34 -143 0
-34 -161 0
-34 -170 0
-34 -179 0
-44 -53 0
-44 -60 0
-44 -70 0
-44 -78 0
-44 -87 0
-44 -97 0
-44 -105 0
-44 -114 0
-44 -124 0
-44 -133 0
-44 -143 0
-44 -161 0
-44 -170 0
-44 -179 0
-53 -60 0
-53 -70 0
-53 -78 0
-53 -87 0
-53 -97 0
-53 -105 0
-53 -114 0
-53 -124 0
-53 -133 0
-53 -143 0
-53 -161 0
-53 -170 0
-53 -179 0
-60 -70 0
-60 -78 0
-60 -87 0
-60 -97 0
-60 -105 0
-60 -114 0
-60 -124 0
-60 -133 0
-60 -143 0
-60 -161 0
-60 -170 0
-60 -179 0
-70 -78 0
-70 -87 0
-70 -97 0
-70 -105 0
-70 -114 0
-70 -124 0
-70 -133 0
-70 -143 0
-70 -161 0
-70 -170 0
-70 -179 0
-78 -87 0
-78 -97 0
-78 -105 0
-78 -114 0
-78 -124 0
-78 -133 0
-78 -143 0
-78 -161 0
-78 -170 0
-78 -179 0
-87 -97 0
-87 -105 0
-87 -114 0
-87 -124 0
-87 -133 0
-87 -143 0
-87 -161 0
-87 -170 0
-87 -179 0
-97 -105 0
-97 -114 0
-97 -124 0
-97 -133 0
-97 -143 0
-97 -161 0
-97 -170 0
-97 -179 0
-105 -114 0
-105 -124 0
-105 -133 0
-105 -143 0
-105 -161 0
-105 -170 0
-105 -179 0
-114 -124 0
-114 -133 0
-114 -143 0
-114 -161 0
-114 -170 0
-114 -179 0
-124 -133 0
-124 -143 0
-124 -161 0
-124 -170 0
-124 -179 0
-133 -143 0
-133 -161 0
-133 -170 0
-133 -179 0
-143 -161 0
-143 -170 0
-143 -179 0
-161 -170 0
-161 -179 0
-170 -179 0
-7 -16 0
-7 -25 0
-7 -35 0
-7 -45 0
-7 -61 0
-7 -71 0
-7 -79 0
-7 -88 0
-7 -98 0
-7 -106 0
-7 -115 0
-7 -125 0
-7 -134 0
-7 -144 0
-7 -162 0
-7 -171 0
-7 -180 0
-16 -25 0
-16 -35 0
-16 -45 0
-16 -61 0
-16 -71 0
-16 -79 0
-16 -88 0
-16 -98 0
-16 -106 0
-16 -115 0
-16 -125 0
-16 -134 0
-16 -144 0
-16 -162 0
-16 -171 0
-16 -180 0
-25 -35 0
-25 -45 0
-25 -61 0
-25 -71 0
-25 -79 0
-25 -88 0
-25 -98 0
-25 -106 0
-25 -115 0
-25 -125 0
-25 -134 0
-25 -144 0
-25 -162 0
-25 -171 0
-25 -180 0
-35 -45 0
-35 -61 0
-35 -71 0
-35 -79 0
-35 -88 0
-35 -98 0
-35 -106 0
-35 -115 0
-35 -125 0
-35 -134 0
-35 -144 0
-35 -162 0
-35 -171 0
-35 -180 0
-45 -61 0
-45 -71 0
-45 -79 0
-45 -88 0
-45 -98 0
-45 -106 0
-45 -115 0
-45 -125 0
-45 -134 0
-45 -144 0
-45 -162 0
-45 -171 0
-45 -180 0
-61 -71 0
-61 -79 0
-61 -88 0
-61 -98 0
-61 -106 0
-61 -115 0
-61 -125 0
-61 -134 0
-61 -144 0
-61 -162 0
-61 -171 0
-61 -180 0
-71 -79 0
-71 -88 0
-71 -98 0
-71 -106 0
-71 -115 0
-71 -125 0
-71 -134 0
-71 -144 0
-71 -162 0
-71 -171 0
-71 -180 0
-79 -88 0
-79 -98 0
-79 -106 0
-79 -115 0
-79 -125 0
-79 -134 0
-79 -144 0
-79 -162 0
-79 -171 0
-79 -180 0
-88 -98 0
-88 -106 0
-88 -115 0
-88 -125 0
-88 -134 0
-88 -144 0
-88 -162 0
-88 -171 0
-88 -180 0
-98 -106 0
-98 -115 0
-98 -125 0
-98 -134 0
-98 -144 0
-98 -162 0
-98 -171 0
-98 -180 0
-106 -115 0
-106 -125 0
-106 -134 0
-106 -144 0
-106 -162 0
-106 -171 0
-106 -180 0
-115 -125 0
-115 -134 0
-115 -144 0
-115 -162 0
-115 -171 0
-115 -180 0
-125 -134 0
-125 -144 0
-125 -162 0
-125 -171 0
-125 -180 0
-134 -144 0
-134 -162 0
-134 -171 0
-134 -180 0
-144 -162 0
-144 -171 0
-144 -180 0
-162 -171 0
-162 -180 0
-171 -180 0
-8 -17 0
-8 -26 0
-8 -36 0
-8 -46 0
-8 -54 0
-8 -62 0
-8 -80 0
-8 -89 0
-8 -99 0
-8 -107 0
-8 -116 0
-8 -126 0
-8 -135 0
-8 -145 0
-8 -153 0
-8 -163 0
-8 -172 0
-8 -181 0
-17 -26 0
-17 -36 0
-17 -46 0
-17 -54 0
-17 -62 0
-17 -80 0
-17 -89 0
-17 -99 0
-17 -107 0
-17 -116 0
-17 -126 0
-17 -135 0
-17 -145 0
-17 -153 0
-17 -163 0
-17 -172 0
-17 -181 0
-26 -36 0
-26 -46 0
-26 -54 0
-26 -62 0
-26 -80 0
-26 -89 0
-26 -99 0
-26 -107 0
-26 -116 0
-26 -126 0
-26 -135 0
-26 -145 0
-26 -153 0
-26 -163 0
-26 -172 0
-26 -181 0
-36 -46 0
-36 -54 0
-36 -62 0
-36 -80 0
-36 -89 0
-36 -99 0
-36 -107 0
-36 -116 0
-36 -126 0
-36 -135 0
-36 -145 0
-36 -153 0
-36 -163 0
-36 -172 0
-36 -181 0
-46 -54 0
-46 -62 0
-46 -80 0
-46 -89 0
-46 -99 0
-46 -107 0
-46 -116 0
-46 -126 0
-46 -135 0
-46 -145 0
-46 -153 0
-46 -163 0
-46 -172 0
-46 -181 0
-54 -62 0
-54 -80 0
-54 -89 0
-54 -99 0
-54 -107 0
-54 -116 0
-54 -126 0
-54 -135 0
-54 -145 0
-54 -153 0
-54 -163 0
-54 -172 0
-54 -181 0
-62 -80 0
-62 -89 0
-62 -99 0
-62 -107 0
-62 -116 0
-62 -126 0
-62 -135 0
-62 -145 0
-62 -153 0
-62 -163 0
-62 -172 0
-62 -181 0
-80 -89 0
-80 -99 0
-80 -107 0
-80 -116 0
-80 -126 0
-80 -135 0
-80 -145 0
-80 -153 0
-80 -163 0
-80 -172 0
-80 -181 0
-89 -99 0
-89 -107 0
-89 -116 0
-89 -126 0
-89 -135 0
-89 -145 0
-89 -153 0
-89 -163 0
-89 -172 0
-89 -181 0
-99 -107 0
-99 -116 0
-99 -126 0
-99 -135 0
-99 -145 0
-99 -153 0
-99 -163 0
-99 -172 0
-99 -181 0
-107 -116 0
-107 -126 0
-107 -135 0
-107 -145 0
-107 -153 0
-107 -163 0
-107 -172 0
-107 -181 0
-116 -126 0
-116 -135 0
-116 -145 0
-116 -153 0
-116 -163 0
-116 -172 0
-116 -181 0
-126 -135 0
-126 -145 0
-126 -153 0
-126 -163 0
-126 -172 0
-126 -181 0
-135 -145 0
-135 -153 0
-135 -163 0
-135 -172 0
-135 -181 0
-145 -153 0
-145 -163 0
-145 -172 0
-145 -181 0
-153 -163 0
-153 -172 0
-153 -181 0
-163 -172 0
-163 -181 0
-172 -181 0
-9 -18 0
-9 -27 0
-9 -37 0
-9 -47 0
-9 -63 0
-9 -72 0
-9 -81 0
-9 -90 0
-9 -108 0
-9 -117 0
-9 -127 0
-9 -136 0
-9 -146 0
-9 -154 0
-9 -164 0
-9 -173 0
-9 -182 0
-18 -27 0
-18 -37 0
-18 -47 0
-18 -63 0
-18 -72 0
-18 -81 0
-18 -90 0
-18 -108 0
-18 -117 0
-18 -127 0
-18 -136 0
-18 -146 0
-18 -154 0
-18 -164 0
-18 -173 0
-18 -182 0
-27 -37 0
-27 -47 0
-27 -63 0
-27 -72 0
-27 -81 0
-27 -90 0
-27 -108 0
-27 -117 0
-27 -127 0
-27 -136 0
-27 -146 0
-27 -154 0
-27 -164 0
-27 -173 0
-27 -182 0
-37 -47 0
-37 -63 0
-37 -72 0
-37 -81 0
-37 -90 0
-37 -108 0
-37 -117 0
-37 -127 0
-37 -136 0
-37 -146 0
-37 -154 0
-37 -164 0
-37 -173 0
-37 -182 0
-47 -63 0
-47 -72 0
-47 -81 0
-47 -90 0
-47 -108 0
-47 -117 0
-47 -127 0
-47 -136 0
-47 -146 0
-47 -154 0
-47 -164 0
-47 -173 0
-47 -182 0
-63 -72 0
-63 -81 0
-63 -90 0
-63 -108 0
-63 -117 0
-63 -127 0
-63 -136 0
-63 -146 0
-63 -154 0
-63 -164 0
-63 -173 0
-63 -182 0
-72 -81 0
-72 -90 0
-72 -108 0
-72 -117 0
-72 -127 0
-72 -136 0
-72 -146 0
-72 -154 0
-72 -164 0
-72 -173 0
-72 -182 0
-81 -90 0
-81 -108 0
-81 -117 0
-81 -127 0
-81 -136 0
-81 -146 0
-81 -154 0
-81 -164 0
-81 -173 0
-81 -182 0
-90 -108 0
-90 -117 0
-90 -127 0
-90 -136 0
-90 -146 0
-90 -154 0
-90 -164 0
-90 -173 0
-90 -182 0
-108 -117 0
-108 -127 0
-108 -136 0
-108 -146 0
-108 -154 0
-108 -164 0
-108 -173 0
-108 -182 0
-117 -127 0
-117 -136 0
-117 -146 0
-117 -154 0
-117 -164 0
-117 -173 0
-117 -182 0
-127 -136 0
-127 -146 0
-127 -154 0
-127 -164 0
-127 -173 0
-127 -182 0
-136 -146 0
-136 -154 0
-136 -164 0
-136 -173 0
-136 -182 0
-146 -154 0
-146 -164 0
-146 -173 0
-146 -182 0
-154 -164 0
-154 -173 0
-154 -182 0
-164 -173 0
-164 -182 0
-173 -182 0